
Gurobi 10.0.2 (linux64) logging started Sun 21 Jul 2024 05:09:47 AM -05

Set parameter LogFile to value "gurobi.log"
Gurobi Optimizer version 10.0.2 build v10.0.2rc0 (linux64)

CPU model: Intel(R) Core(TM) i5-1035G1 CPU @ 1.00GHz, instruction set [SSE2|AVX|AVX2|AVX512]
Thread count: 4 physical cores, 8 logical processors, using up to 8 threads

Academic license 2446675 - for non-commercial use only - registered to mi___@epn.edu.ec
Optimize a model with 5854 rows, 3224 columns and 74527 nonzeros
Model fingerprint: 0xada0263a
Variable types: 0 continuous, 3224 integer (1024 binary)
Coefficient statistics:
  Matrix range     [5e-01, 2e+03]
  Objective range  [1e+00, 1e+00]
  Bounds range     [1e+00, 2e+03]
  RHS range        [1e+00, 5e+03]
Presolve removed 5491 rows and 2805 columns
Presolve time: 0.04s
Presolved: 363 rows, 419 columns, 1417 nonzeros
Variable types: 0 continuous, 419 integer (335 binary)
Found heuristic solution: objective 57766.000000

Root relaxation: objective 5.778900e+04, 110 iterations, 0.00 seconds (0.00 work units)

    Nodes    |    Current Node    |     Objective Bounds      |     Work
 Expl Unexpl |  Obj  Depth IntInf | Incumbent    BestBd   Gap | It/Node Time

*    0     0               0    57789.000000 57789.0000  0.00%     -    0s

Explored 1 nodes (110 simplex iterations) in 0.06 seconds (0.07 work units)
Thread count was 8 (of 8 available processors)

Solution count 2: 57789 57766 

Optimal solution found (tolerance 1.00e-04)
Best objective 5.778900000000e+04, best bound 5.778900000000e+04, gap 0.0000%
